sat
(= |goto_symex::&92;guard#1| true)
(= |goto_symex::&92;guard#2| false)
(= |memory_model::choice_rf_1_16_0_11_T_0| false)
(= |memory_model::choice_rf_1_16_2_40_T_1| true)
(= |memory_model::choice_rf_1_16_3_17_T_2| false)
(= |memory_model::choice_rf_1_16_4_20_T_3| false)
(= |memory_model::choice_rf_2_39_0_11_T_4| true)
(= |memory_model::choice_rf_2_39_1_17_T_5| false)
(= |memory_model::choice_rf_2_39_3_17_T_6| false)
(= |memory_model::choice_rf_2_39_4_20_T_7| false)
(= |memory_model::choice_rf_3_16_0_11_T_8| false)
(= |memory_model::choice_rf_3_16_1_17_T_9| false)
(= |memory_model::choice_rf_3_16_2_40_T_10| true)
(= |memory_model::choice_rf_3_16_4_20_T_11| false)
(= |memory_model::choice_rf_4_19_0_11_T_12| false)
(= |memory_model::choice_rf_4_19_1_17_T_13| false)
(= |memory_model::choice_rf_4_19_2_40_T_14| false)
(= |memory_model::choice_rf_4_19_3_17_T_15| true)
(= |memory_model::choice_rf_0_47_0_9_T_16| false)
(= |memory_model::choice_rf_0_47_0_43_T_17| true)
(= |memory_model::choice_rf_0_52_0_9_T_18| false)
(= |memory_model::choice_rf_0_52_0_43_T_19| false)
(= |memory_model::choice_rf_0_52_0_48_T_20| true)
(= |memory_model::choice_rf_0_57_0_9_T_21| false)
(= |memory_model::choice_rf_0_57_0_43_T_22| false)
(= |memory_model::choice_rf_0_57_0_48_T_23| false)
(= |memory_model::choice_rf_0_57_0_53_T_24| true)
(= |memory_model::choice_rf_0_65_0_21_F_25| false)
(= |memory_model::choice_rf_0_65_1_1_F_26| false)
(= |memory_model::choice_rf_0_65_1_13_F_27| false)
(= |memory_model::choice_rf_0_65_2_36_F_28| false)
(= |memory_model::choice_rf_0_65_3_13_F_29| true)
(= |memory_model::choice_rf_0_65_4_16_F_30| false)
(= |memory_model::choice_rf_0_82_0_21_F_31| false)
(= |memory_model::choice_rf_0_82_0_75_F_32| true)
(= |memory_model::choice_rf_0_82_1_1_F_33| false)
(= |memory_model::choice_rf_0_82_1_13_F_34| false)
(= |memory_model::choice_rf_0_82_2_36_F_35| false)
(= |memory_model::choice_rf_0_82_3_13_F_36| false)
(= |memory_model::choice_rf_0_82_4_16_F_37| false)
(= |memory_model::choice_rf_1_2_0_21_F_38| false)
(= |memory_model::choice_rf_1_2_0_75_F_39| false)
(= |memory_model::choice_rf_1_2_0_97_F_40| false)
(= |memory_model::choice_rf_1_2_1_1_F_41| true)
(= |memory_model::choice_rf_1_2_2_36_F_42| false)
(= |memory_model::choice_rf_1_2_3_13_F_43| false)
(= |memory_model::choice_rf_1_2_4_16_F_44| false)
(= |memory_model::choice_rf_2_25_0_21_F_45| false)
(= |memory_model::choice_rf_2_25_0_75_F_46| false)
(= |memory_model::choice_rf_2_25_0_97_F_47| false)
(= |memory_model::choice_rf_2_25_1_1_F_48| false)
(= |memory_model::choice_rf_2_25_1_13_F_49| false)
(= |memory_model::choice_rf_2_25_3_13_F_50| false)
(= |memory_model::choice_rf_2_25_4_16_F_51| true)
(= |memory_model::choice_rf_3_2_0_21_F_52| false)
(= |memory_model::choice_rf_3_2_0_75_F_53| false)
(= |memory_model::choice_rf_3_2_0_97_F_54| false)
(= |memory_model::choice_rf_3_2_1_1_F_55| false)
(= |memory_model::choice_rf_3_2_1_13_F_56| false)
(= |memory_model::choice_rf_3_2_2_36_F_57| true)
(= |memory_model::choice_rf_3_2_4_16_F_58| false)
(= |memory_model::choice_rf_4_5_0_21_F_59| false)
(= |memory_model::choice_rf_4_5_0_75_F_60| false)
(= |memory_model::choice_rf_4_5_0_97_F_61| false)
(= |memory_model::choice_rf_4_5_1_1_F_62| false)
(= |memory_model::choice_rf_4_5_1_13_F_63| true)
(= |memory_model::choice_rf_4_5_2_36_F_64| false)
(= |memory_model::choice_rf_4_5_3_13_F_65| false)
(= |memory_model::choice_rf_0_61_0_12_F_66| false)
(= |memory_model::choice_rf_0_61_1_15_F_67| false)
(= |memory_model::choice_rf_0_61_2_38_F_68| false)
(= |memory_model::choice_rf_0_61_3_15_F_69| true)
(= |memory_model::choice_rf_0_61_4_18_F_70| false)
(= |memory_model::choice_rf_1_14_0_12_F_71| true)
(= |memory_model::choice_rf_1_14_2_38_F_72| false)
(= |memory_model::choice_rf_1_14_3_15_F_73| false)
(= |memory_model::choice_rf_1_14_4_18_F_74| false)
(= |memory_model::choice_rf_2_37_0_12_F_75| false)
(= |memory_model::choice_rf_2_37_1_15_F_76| true)
(= |memory_model::choice_rf_2_37_3_15_F_77| false)
(= |memory_model::choice_rf_2_37_4_18_F_78| false)
(= |memory_model::choice_rf_3_14_0_12_F_79| false)
(= |memory_model::choice_rf_3_14_1_15_F_80| false)
(= |memory_model::choice_rf_3_14_2_38_F_81| false)
(= |memory_model::choice_rf_3_14_4_18_F_82| true)
(= |memory_model::choice_rf_4_17_0_12_F_83| false)
(= |memory_model::choice_rf_4_17_1_15_F_84| false)
(= |memory_model::choice_rf_4_17_2_38_F_85| true)
(= |memory_model::choice_rf_4_17_3_15_F_86| false)
(= |memory_model::choice_rf_0_89_0_13_F_87| false)
(= |memory_model::choice_rf_0_89_2_24_F_88| true)
(= |memory_model::choice_rf_2_22_0_13_F_89| false)
(= |memory_model::choice_rf_0_77_0_14_F_90| false)
(= |memory_model::choice_rf_0_77_4_2_F_91| true)
(= |memory_model::choice_rf_0_85_0_15_F_92| false)
(= |memory_model::choice_rf_0_85_4_4_F_93| true)
(= |memory_model::choice_rf_4_3_0_16_F_94| true)
(= |memory_model::choice_rf_4_3_1_0_F_95| false)
(= |memory_model::choice_rf_0_63_0_17_F_96| false)
(= |memory_model::choice_rf_0_63_0_62_F_97| true)
(= |memory_model::choice_rf_0_76_0_18_F_98| false)
(= |memory_model::choice_rf_0_104_0_18_F_99| false)
(= |memory_model::choice_rf_0_104_0_99_F_100| true)
(= |memory_model::choice_rf_0_105_0_18_F_101| false)
(= |memory_model::choice_rf_0_105_0_99_F_102| true)
(= |memory_model::choice_rf_0_81_0_22_F_103| false)
(= |memory_model::choice_rf_0_84_0_23_F_104| false)
(= |memory_model::choice_rf_0_69_0_24_F_105| true)
(= |memory_model::choice_rf_0_86_0_24_F_106| false)
(= |memory_model::choice_rf_0_86_0_71_F_107| true)
(= |memory_model::choice_rf_2_8_0_24_F_108| true)
(= |memory_model::choice_rf_2_8_0_71_F_109| false)
(= |memory_model::choice_rf_2_8_0_92_F_110| false)
(= |memory_model::choice_rf_1_7_0_25_F_111| true)
(= |memory_model::choice_rf_2_6_0_25_F_112| true)
(= |memory_model::choice_rf_2_6_1_9_F_113| false)
(= |memory_model::choice_rf_2_4_0_26_F_114| true)
(= |memory_model::choice_rf_2_30_0_26_F_115| false)
(= |memory_model::choice_rf_2_30_2_12_F_116| true)
(= |memory_model::choice_rf_2_2_0_27_F_117| true)
(= |memory_model::choice_rf_2_2_3_10_F_118| false)
(= |memory_model::choice_rf_3_7_0_27_F_119| true)
(= |memory_model::choice_rf_2_1_0_28_F_120| true)
(= |memory_model::choice_rf_2_1_4_12_F_121| false)
(= |memory_model::choice_rf_4_10_0_28_F_122| true)
(= |memory_model::choice_rf_0_66_0_29_F_123| false)
(= |memory_model::choice_rf_0_66_2_17_F_124| true)
(= |memory_model::choice_rf_0_83_0_29_F_125| false)
(= |memory_model::choice_rf_0_83_0_74_F_126| true)
(= |memory_model::choice_rf_0_83_2_17_F_127| false)
(= |memory_model::choice_rf_2_7_0_29_F_128| false)
(= |memory_model::choice_rf_2_7_0_74_F_129| false)
(= |memory_model::choice_rf_2_7_0_96_F_130| false)
(= |memory_model::choice_rf_1_4_0_30_F_131| false)
(= |memory_model::choice_rf_1_4_2_16_F_132| true)
(= |memory_model::choice_rf_2_5_0_30_F_133| false)
(= |memory_model::choice_rf_2_5_1_12_F_134| false)
(= |memory_model::choice_rf_2_3_0_31_F_135| false)
(= |memory_model::choice_rf_2_27_0_31_F_136| false)
(= |memory_model::choice_rf_2_27_2_14_F_137| true)
(= |memory_model::choice_rf_2_10_0_32_F_138| false)
(= |memory_model::choice_rf_2_10_3_9_F_139| false)
(= |memory_model::choice_rf_3_5_0_32_F_140| false)
(= |memory_model::choice_rf_3_5_2_13_F_141| true)
(= |memory_model::choice_rf_2_0_0_33_F_142| false)
(= |memory_model::choice_rf_2_0_4_15_F_143| false)
(= |memory_model::choice_rf_4_7_0_33_F_144| false)
(= |memory_model::choice_rf_4_7_2_15_F_145| true)
(= |memory_model::choice_rf_0_68_0_36_F_146| false)
(= |memory_model::choice_rf_0_68_2_20_F_147| true)
(= |memory_model::choice_rf_0_88_0_36_F_148| false)
(= |memory_model::choice_rf_0_88_2_20_F_149| true)
(= |memory_model::choice_rf_1_6_0_36_F_150| false)
(= |memory_model::choice_rf_1_6_0_95_F_151| false)
(= |memory_model::choice_rf_1_6_2_20_F_152| true)
(= |memory_model::choice_rf_2_11_0_36_F_153| true)
(= |memory_model::choice_rf_2_11_0_95_F_154| false)
(= |memory_model::choice_rf_2_29_0_36_F_155| false)
(= |memory_model::choice_rf_2_29_0_95_F_156| false)
(= |memory_model::choice_rf_2_29_2_20_F_157| true)
(= |memory_model::choice_rf_3_6_0_36_F_158| false)
(= |memory_model::choice_rf_3_6_0_95_F_159| false)
(= |memory_model::choice_rf_3_6_2_20_F_160| true)
(= |memory_model::choice_rf_4_9_0_36_F_161| false)
(= |memory_model::choice_rf_4_9_0_95_F_162| false)
(= |memory_model::choice_rf_4_9_2_20_F_163| true)
(= |memory_model::choice_rf_0_70_0_37_F_164| false)
(= |memory_model::choice_rf_0_70_1_11_F_165| false)
(= |memory_model::choice_rf_0_70_2_18_F_166| false)
(= |memory_model::choice_rf_0_70_2_35_F_167| false)
(= |memory_model::choice_rf_0_70_3_12_F_168| true)
(= |memory_model::choice_rf_0_70_4_14_F_169| false)
(= |memory_model::choice_rf_0_79_0_37_F_170| false)
(= |memory_model::choice_rf_0_79_0_73_F_171| true)
(= |memory_model::choice_rf_0_79_1_11_F_172| false)
(= |memory_model::choice_rf_0_79_2_18_F_173| false)
(= |memory_model::choice_rf_0_79_2_35_F_174| false)
(= |memory_model::choice_rf_0_79_3_12_F_175| false)
(= |memory_model::choice_rf_0_79_4_14_F_176| false)
(= |memory_model::choice_rf_1_8_0_37_F_177| false)
(= |memory_model::choice_rf_1_8_0_73_F_178| false)
(= |memory_model::choice_rf_1_8_0_102_F_179| false)
(= |memory_model::choice_rf_1_8_2_18_F_180| true)
(= |memory_model::choice_rf_1_8_2_35_F_181| false)
(= |memory_model::choice_rf_1_8_3_12_F_182| false)
(= |memory_model::choice_rf_1_8_4_14_F_183| false)
(= |memory_model::choice_rf_2_9_0_37_F_184| true)
(= |memory_model::choice_rf_2_9_0_73_F_185| false)
(= |memory_model::choice_rf_2_9_0_102_F_186| false)
(= |memory_model::choice_rf_2_9_1_11_F_187| false)
(= |memory_model::choice_rf_2_9_3_12_F_188| false)
(= |memory_model::choice_rf_2_9_4_14_F_189| false)
(= |memory_model::choice_rf_2_31_0_37_F_190| false)
(= |memory_model::choice_rf_2_31_0_73_F_191| false)
(= |memory_model::choice_rf_2_31_0_102_F_192| false)
(= |memory_model::choice_rf_2_31_1_11_F_193| false)
(= |memory_model::choice_rf_2_31_2_18_F_194| false)
(= |memory_model::choice_rf_2_31_3_12_F_195| false)
(= |memory_model::choice_rf_2_31_4_14_F_196| true)
(= |memory_model::choice_rf_3_8_0_37_F_197| false)
(= |memory_model::choice_rf_3_8_0_73_F_198| false)
(= |memory_model::choice_rf_3_8_0_102_F_199| false)
(= |memory_model::choice_rf_3_8_1_11_F_200| false)
(= |memory_model::choice_rf_3_8_2_18_F_201| false)
(= |memory_model::choice_rf_3_8_2_35_F_202| true)
(= |memory_model::choice_rf_3_8_4_14_F_203| false)
(= |memory_model::choice_rf_4_11_0_37_F_204| false)
(= |memory_model::choice_rf_4_11_0_73_F_205| false)
(= |memory_model::choice_rf_4_11_0_102_F_206| false)
(= |memory_model::choice_rf_4_11_1_11_F_207| true)
(= |memory_model::choice_rf_4_11_2_18_F_208| false)
(= |memory_model::choice_rf_4_11_2_35_F_209| false)
(= |memory_model::choice_rf_4_11_3_12_F_210| false)
(= |memory_model::choice_rf_0_64_0_38_F_211| false)
(= |memory_model::choice_rf_0_64_2_21_F_212| true)
(= |memory_model::choice_rf_0_90_0_38_F_213| false)
(= |memory_model::choice_rf_0_90_2_21_F_214| true)
(= |memory_model::choice_rf_1_3_0_38_F_215| false)
(= |memory_model::choice_rf_1_3_0_94_F_216| false)
(= |memory_model::choice_rf_1_3_2_21_F_217| true)
(= |memory_model::choice_rf_2_26_0_38_F_218| false)
(= |memory_model::choice_rf_2_26_0_94_F_219| false)
(= |memory_model::choice_rf_2_26_2_21_F_220| true)
(= |memory_model::choice_rf_3_3_0_38_F_221| false)
(= |memory_model::choice_rf_3_3_0_94_F_222| false)
(= |memory_model::choice_rf_3_3_2_21_F_223| true)
(= |memory_model::choice_rf_4_6_0_38_F_224| false)
(= |memory_model::choice_rf_4_6_0_94_F_225| false)
(= |memory_model::choice_rf_4_6_2_21_F_226| true)
(= |memory_model::choice_rf_0_67_0_39_F_227| false)
(= |memory_model::choice_rf_0_67_1_10_F_228| false)
(= |memory_model::choice_rf_0_67_2_19_F_229| false)
(= |memory_model::choice_rf_0_67_2_34_F_230| false)
(= |memory_model::choice_rf_0_67_3_11_F_231| true)
(= |memory_model::choice_rf_0_67_4_13_F_232| false)
(= |memory_model::choice_rf_0_87_0_39_F_233| false)
(= |memory_model::choice_rf_0_87_0_72_F_234| true)
(= |memory_model::choice_rf_0_87_1_10_F_235| false)
(= |memory_model::choice_rf_0_87_2_19_F_236| false)
(= |memory_model::choice_rf_0_87_2_34_F_237| false)
(= |memory_model::choice_rf_0_87_3_11_F_238| false)
(= |memory_model::choice_rf_0_87_4_13_F_239| false)
(= |memory_model::choice_rf_1_5_0_39_F_240| false)
(= |memory_model::choice_rf_1_5_0_72_F_241| false)
(= |memory_model::choice_rf_1_5_0_93_F_242| false)
(= |memory_model::choice_rf_1_5_2_19_F_243| true)
(= |memory_model::choice_rf_1_5_2_34_F_244| false)
(= |memory_model::choice_rf_1_5_3_11_F_245| false)
(= |memory_model::choice_rf_1_5_4_13_F_246| false)
(= |memory_model::choice_rf_2_28_0_39_F_247| false)
(= |memory_model::choice_rf_2_28_0_72_F_248| false)
(= |memory_model::choice_rf_2_28_0_93_F_249| false)
(= |memory_model::choice_rf_2_28_1_10_F_250| false)
(= |memory_model::choice_rf_2_28_2_19_F_251| false)
(= |memory_model::choice_rf_2_28_3_11_F_252| false)
(= |memory_model::choice_rf_2_28_4_13_F_253| true)
(= |memory_model::choice_rf_3_4_0_39_F_254| false)
(= |memory_model::choice_rf_3_4_0_72_F_255| false)
(= |memory_model::choice_rf_3_4_0_93_F_256| false)
(= |memory_model::choice_rf_3_4_1_10_F_257| false)
(= |memory_model::choice_rf_3_4_2_19_F_258| false)
(= |memory_model::choice_rf_3_4_2_34_F_259| true)
(= |memory_model::choice_rf_3_4_4_13_F_260| false)
(= |memory_model::choice_rf_4_8_0_39_F_261| false)
(= |memory_model::choice_rf_4_8_0_72_F_262| false)
(= |memory_model::choice_rf_4_8_0_93_F_263| false)
(= |memory_model::choice_rf_4_8_1_10_F_264| true)
(= |memory_model::choice_rf_4_8_2_19_F_265| false)
(= |memory_model::choice_rf_4_8_2_34_F_266| false)
(= |memory_model::choice_rf_4_8_3_11_F_267| false)
(= |memory_model::choice_rf_2_23_0_40_F_268| true)
(= |memory_model::choice_rf_2_23_3_0_F_269| false)
(= |memory_model::choice_rf_0_91_0_41_F_270| false)
(= |memory_model::choice_rf_0_91_3_1_F_271| false)
(= |memory_model::choice_rf_0_91_4_0_F_272| true)
(= |memory_model::choice_rf_4_1_0_41_F_273| false)
(= |memory_model::choice_rf_4_1_3_1_F_274| false)
(= |memory_model::choice_rf_4_1_4_0_F_275| true)
(= |memory_model::choice_rf_0_78_0_19_F_276| false)
(= |memory_model::choice_rf_0_80_0_20_F_277| false)
(= |memory_model::choice_ws-ext_0_11_1_17_T_278| true)
(= |memory_model::choice_ws-ext_0_11_2_40_T_279| true)
(= |memory_model::choice_ws-ext_0_11_3_17_T_280| true)
(= |memory_model::choice_ws-ext_0_11_4_20_T_281| true)
(= |memory_model::choice_ws-ext_1_17_2_40_T_282| false)
(= |memory_model::choice_ws-ext_1_17_3_17_T_283| false)
(= |memory_model::choice_ws-ext_1_17_4_20_T_284| false)
(= |memory_model::choice_ws-ext_2_40_3_17_T_285| true)
(= |memory_model::choice_ws-ext_2_40_4_20_T_286| true)
(= |memory_model::choice_ws-ext_3_17_4_20_T_287| true)
(= |memory_model::choice_ws-ext_0_21_1_1_F_288| true)
(= |memory_model::choice_ws-ext_0_21_1_13_F_289| true)
(= |memory_model::choice_ws-ext_0_21_2_36_F_290| true)
(= |memory_model::choice_ws-ext_0_21_3_13_F_291| true)
(= |memory_model::choice_ws-ext_0_21_4_16_F_292| true)
(= |memory_model::choice_ws-ext_0_75_1_1_F_293| false)
(= |memory_model::choice_ws-ext_0_75_1_13_F_294| false)
(= |memory_model::choice_ws-ext_0_75_2_36_F_295| false)
(= |memory_model::choice_ws-ext_0_75_3_13_F_296| false)
(= |memory_model::choice_ws-ext_0_75_4_16_F_297| false)
(= |memory_model::choice_ws-ext_0_97_1_1_F_298| false)
(= |memory_model::choice_ws-ext_0_97_1_13_F_299| false)
(= |memory_model::choice_ws-ext_0_97_2_36_F_300| false)
(= |memory_model::choice_ws-ext_0_97_3_13_F_301| false)
(= |memory_model::choice_ws-ext_0_97_4_16_F_302| false)
(= |memory_model::choice_ws-ext_1_1_2_36_F_303| true)
(= |memory_model::choice_ws-ext_1_1_3_13_F_304| true)
(= |memory_model::choice_ws-ext_1_1_4_16_F_305| true)
(= |memory_model::choice_ws-ext_1_13_2_36_F_306| true)
(= |memory_model::choice_ws-ext_1_13_3_13_F_307| true)
(= |memory_model::choice_ws-ext_1_13_4_16_F_308| true)
(= |memory_model::choice_ws-ext_2_36_3_13_F_309| true)
(= |memory_model::choice_ws-ext_2_36_4_16_F_310| false)
(= |memory_model::choice_ws-ext_3_13_4_16_F_311| false)
(= |memory_model::choice_ws-ext_0_12_1_15_F_312| true)
(= |memory_model::choice_ws-ext_0_12_2_38_F_313| true)
(= |memory_model::choice_ws-ext_0_12_3_15_F_314| true)
(= |memory_model::choice_ws-ext_0_12_4_18_F_315| true)
(= |memory_model::choice_ws-ext_1_15_2_38_F_316| true)
(= |memory_model::choice_ws-ext_1_15_3_15_F_317| true)
(= |memory_model::choice_ws-ext_1_15_4_18_F_318| true)
(= |memory_model::choice_ws-ext_2_38_3_15_F_319| true)
(= |memory_model::choice_ws-ext_2_38_4_18_F_320| true)
(= |memory_model::choice_ws-ext_3_15_4_18_F_321| false)
(= |memory_model::choice_ws-ext_0_13_2_24_F_322| true)
(= |memory_model::choice_ws-ext_0_14_4_2_F_323| true)
(= |memory_model::choice_ws-ext_0_15_4_4_F_324| true)
(= |memory_model::choice_ws-ext_0_16_1_0_F_325| true)
(= |memory_model::choice_ws-ext_0_25_1_9_F_326| true)
(= |memory_model::choice_ws-ext_0_26_2_12_F_327| true)
(= |memory_model::choice_ws-ext_0_26_2_33_F_328| true)
(= |memory_model::choice_ws-ext_0_27_3_10_F_329| true)
(= |memory_model::choice_ws-ext_0_28_4_12_F_330| true)
(= |memory_model::choice_ws-ext_0_29_2_17_F_331| true)
(= |memory_model::choice_ws-ext_0_74_2_17_F_332| false)
(= |memory_model::choice_ws-ext_0_96_2_17_F_333| false)
(= |memory_model::choice_ws-ext_0_30_1_12_F_334| true)
(= |memory_model::choice_ws-ext_0_30_2_16_F_335| true)
(= |memory_model::choice_ws-ext_1_12_2_16_F_336| false)
(= |memory_model::choice_ws-ext_0_31_2_14_F_337| true)
(= |memory_model::choice_ws-ext_0_31_2_32_F_338| true)
(= |memory_model::choice_ws-ext_0_32_2_13_F_339| true)
(= |memory_model::choice_ws-ext_0_32_3_9_F_340| true)
(= |memory_model::choice_ws-ext_2_13_3_9_F_341| true)
(= |memory_model::choice_ws-ext_0_33_2_15_F_342| true)
(= |memory_model::choice_ws-ext_0_33_4_15_F_343| true)
(= |memory_model::choice_ws-ext_2_15_4_15_F_344| true)
(= |memory_model::choice_ws-ext_0_36_2_20_F_345| true)
(= |memory_model::choice_ws-ext_0_95_2_20_F_346| false)
(= |memory_model::choice_ws-ext_0_37_1_11_F_347| true)
(= |memory_model::choice_ws-ext_0_37_2_18_F_348| true)
(= |memory_model::choice_ws-ext_0_37_2_35_F_349| true)
(= |memory_model::choice_ws-ext_0_37_3_12_F_350| true)
(= |memory_model::choice_ws-ext_0_37_4_14_F_351| true)
(= |memory_model::choice_ws-ext_0_73_1_11_F_352| false)
(= |memory_model::choice_ws-ext_0_73_2_18_F_353| false)
(= |memory_model::choice_ws-ext_0_73_2_35_F_354| false)
(= |memory_model::choice_ws-ext_0_73_3_12_F_355| false)
(= |memory_model::choice_ws-ext_0_73_4_14_F_356| false)
(= |memory_model::choice_ws-ext_0_102_1_11_F_357| false)
(= |memory_model::choice_ws-ext_0_102_2_18_F_358| false)
(= |memory_model::choice_ws-ext_0_102_2_35_F_359| false)
(= |memory_model::choice_ws-ext_0_102_3_12_F_360| false)
(= |memory_model::choice_ws-ext_0_102_4_14_F_361| false)
(= |memory_model::choice_ws-ext_1_11_2_18_F_362| false)
(= |memory_model::choice_ws-ext_1_11_2_35_F_363| true)
(= |memory_model::choice_ws-ext_1_11_3_12_F_364| true)
(= |memory_model::choice_ws-ext_1_11_4_14_F_365| true)
(= |memory_model::choice_ws-ext_2_18_3_12_F_366| true)
(= |memory_model::choice_ws-ext_2_18_4_14_F_367| true)
(= |memory_model::choice_ws-ext_2_35_3_12_F_368| true)
(= |memory_model::choice_ws-ext_2_35_4_14_F_369| false)
(= |memory_model::choice_ws-ext_3_12_4_14_F_370| false)
(= |memory_model::choice_ws-ext_0_38_2_21_F_371| true)
(= |memory_model::choice_ws-ext_0_94_2_21_F_372| false)
(= |memory_model::choice_ws-ext_0_39_1_10_F_373| true)
(= |memory_model::choice_ws-ext_0_39_2_19_F_374| true)
(= |memory_model::choice_ws-ext_0_39_2_34_F_375| true)
(= |memory_model::choice_ws-ext_0_39_3_11_F_376| true)
(= |memory_model::choice_ws-ext_0_39_4_13_F_377| true)
(= |memory_model::choice_ws-ext_0_72_1_10_F_378| false)
(= |memory_model::choice_ws-ext_0_72_2_19_F_379| false)
(= |memory_model::choice_ws-ext_0_72_2_34_F_380| false)
(= |memory_model::choice_ws-ext_0_72_3_11_F_381| false)
(= |memory_model::choice_ws-ext_0_72_4_13_F_382| false)
(= |memory_model::choice_ws-ext_0_93_1_10_F_383| false)
(= |memory_model::choice_ws-ext_0_93_2_19_F_384| false)
(= |memory_model::choice_ws-ext_0_93_2_34_F_385| false)
(= |memory_model::choice_ws-ext_0_93_3_11_F_386| false)
(= |memory_model::choice_ws-ext_0_93_4_13_F_387| false)
(= |memory_model::choice_ws-ext_1_10_2_19_F_388| false)
(= |memory_model::choice_ws-ext_1_10_2_34_F_389| true)
(= |memory_model::choice_ws-ext_1_10_3_11_F_390| true)
(= |memory_model::choice_ws-ext_1_10_4_13_F_391| true)
(= |memory_model::choice_ws-ext_2_19_3_11_F_392| true)
(= |memory_model::choice_ws-ext_2_19_4_13_F_393| true)
(= |memory_model::choice_ws-ext_2_34_3_11_F_394| true)
(= |memory_model::choice_ws-ext_2_34_4_13_F_395| false)
(= |memory_model::choice_ws-ext_3_11_4_13_F_396| false)
(= |memory_model::choice_ws-ext_0_40_3_0_F_397| true)
(= |memory_model::choice_ws-ext_0_41_3_1_F_398| true)
(= |memory_model::choice_ws-ext_0_41_4_0_F_399| true)
(= |memory_model::choice_ws-ext_3_1_4_0_F_400| true)
(= |main$tmp_guard0#3| #b00000001)
(= |__CPROVER_next_thread_id#3| #b00000000000000000000000000000001)
(= |__CPROVER_next_thread_id#6| #b00000000000000000000000000000010)
(= |__CPROVER_next_thread_id#9| #b00000000000000000000000000000011)
(= |__unbuffered_cnt#2| #b00000000000000000000000000000100)
(= |x$w_buff0_used#2| #b00000000)
(= |x$r_buff0_thd0#2| #b00000000)
(= |x$w_buff0#2| #b00000000000000000000000000000010)
(= |x$w_buff1_used#2| #b00000000)
(= |x$r_buff1_thd0#2| #b00000000)
(= |x$w_buff1#2| #b00000000000000000000000000000000)
(= |x#2| #b00000000000000000000000000000010)
(= |x#4| #b00000000000000000000000000000010)
(= |x$w_buff0_used#6| #b00000000)
(= |x$w_buff1_used#6| #b00000000)
(= |x$r_buff0_thd0#8| #b00000000)
(= |x$r_buff1_thd0#7| #b00000000)
(= |nondet_symex::nondet0| #b00000000000000000000000000000000)
(= |weak$$choice0#2| #b00000000)
(= |weak$$choice0#3| #b10000000)
(= |nondet_symex::nondet1| #b10000000000000000000000000000000)
(= |weak$$choice2#2| #b00000001)
(= |weak$$choice2#3| #b10000000)
(= |x$flush_delayed#2| #b00000001)
(= |x$flush_delayed#3| #b10000000)
(= |x#6| #b00000000000000000000000000000010)
(= |x$mem_tmp#2| #b00000000000000000000000000000010)
(= |x$mem_tmp#3| #b10000000000000000000000000000000)
(= |x$w_buff0_used#11| #b00000000)
(= |x$r_buff0_thd0#11| #b00000000)
(= |x$w_buff1_used#9| #b00000000)
(= |x$r_buff1_thd0#9| #b00000000)
(= |x$w_buff0#4| #b00000000000000000000000000000010)
(= |x$w_buff1#4| #b00000000000000000000000000000000)
(= |x#9| #b00000000000000000000000000000010)
(= |x$w_buff0#10| #b00000000000000000000000000000010)
(= |x$w_buff1#10| #b00000000000000000000000000000000)
(= |x$w_buff0_used#23| #b00000000)
(= |x$w_buff1_used#17| #b00000000)
(= |x$r_buff0_thd0#33| #b00000000)
(= |x$r_buff1_thd0#19| #b00000000)
(= |z#2| #b00000000000000000000000000000010)
(= |__unbuffered_p1_EAX#2| #b00000000000000000000000000000000)
(= |__unbuffered_p3_EAX#2| #b00000000000000000000000000000010)
(= |__unbuffered_p3_EBX#2| #b00000000000000000000000000000000)
(= |main$tmp_guard1#2| #b00000000)
(= |main$tmp_guard1#3| #b10000000)
(= |x#13| #b00000000000000000000000000000010)
(= |x$flush_delayed#6| #b00000000)
(= |main$tmp_guard1#6| #b00000000)
(= |pthread_create::1::this_thread_id!1@0#0| #b10000000000000000000000000000000)
(= |x$w_buff0_used#31| #b00000001)
(= |x$r_buff0_thd1#2| #b00000000)
(= |x$w_buff0#12| #b00000000000000000000000000000010)
(= |x$w_buff1_used#21| #b00000000)
(= |x$r_buff1_thd1#2| #b00000000)
(= |x$w_buff1#12| #b00000000000000000000000000000000)
(= |x#16| #b00000000000000000000000000000001)
(= |__unbuffered_cnt#4| #b00000000000000000000000000000000)
(= |pthread_create::1::this_thread_id!2@0#0| #b00000000000000000000000000000000)
(= |x$w_buff0#14| #b00000000000000000000000000000000)
(= |x$w_buff0_used#34| #b00000000)
(= |x$r_buff0_thd0#38| #b00000000)
(= |x$r_buff1_thd0#21| #b00000000)
(= |x$r_buff1_thd0#22| #b10000000)
(= |x$r_buff0_thd1#5| #b00000000)
(= |x$r_buff1_thd1#5| #b00000000)
(= |x$r_buff1_thd1#6| #b10000000)
(= |x$r_buff0_thd2#2| #b00000000)
(= |x$r_buff1_thd2#2| #b00000000)
(= |x$r_buff1_thd2#3| #b10000000)
(= |x$r_buff0_thd3#2| #b00000000)
(= |x$r_buff1_thd3#2| #b00000000)
(= |x$r_buff1_thd3#3| #b10000000)
(= |x$r_buff0_thd4#2| #b00000000)
(= |x$r_buff1_thd4#2| #b00000000)
(= |x$r_buff1_thd4#3| #b10000000)
(= |x$r_buff0_thd2#4| #b00000001)
(= |y#2| #b00000000000000000000000000000000)
(= |__unbuffered_p1_EAX#4| #b00000000000000000000000000000000)
(= |__unbuffered_p1_EAX#5| #b10000000000000000000000000000000)
(= |x$w_buff0_used#37| #b00000001)
(= |x$r_buff0_thd2#6| #b00000001)
(= |x$w_buff0#17| #b00000000000000000000000000000010)
(= |x$w_buff1_used#25| #b00000000)
(= |x$r_buff1_thd2#5| #b00000000)
(= |x$w_buff1#15| #b00000000000000000000000000000000)
(= |x#19| #b00000000000000000000000000000001)
(= |x#21| #b00000000000000000000000000000010)
(= |x$w_buff0_used#41| #b00000000)
(= |x$w_buff1_used#29| #b00000000)
(= |x$r_buff0_thd2#12| #b00000001)
(= |x$r_buff1_thd2#10| #b00000000)
(= |__unbuffered_cnt#7| #b00000000000000000000000000000001)
(= |__unbuffered_cnt#9| #b00000000000000000000000000000010)
(= |pthread_create::1::this_thread_id!3@0#0| #b00000000000000000000000000000000)
(= |x$w_buff0_used#46| #b00000000)
(= |x$r_buff0_thd3#4| #b00000000)
(= |x$w_buff0#19| #b00000000000000000000000000000010)
(= |x$w_buff1_used#32| #b00000000)
(= |x$r_buff1_thd3#5| #b00000000)
(= |x$w_buff1#17| #b00000000000000000000000000000000)
(= |x#23| #b00000000000000000000000000000010)
(= |__unbuffered_cnt#11| #b00000000000000000000000000000011)
(= |pthread_create::1::this_thread_id!4@0#0| #b00000000000000000000000000000000)
(= |z#6| #b00000000000000000000000000000010)
(= |a#3| #b00000000000000000000000000000000)
(= |x$w_buff0_used#49| #b00000001)
(= |x$r_buff0_thd4#4| #b00000000)
(= |x$w_buff0#21| #b00000000000000000000000000000010)
(= |x$w_buff1_used#35| #b00000000)
(= |x$r_buff1_thd4#5| #b00000000)
(= |x$w_buff1#19| #b00000000000000000000000000000000)
(= |x#26| #b00000000000000000000000000000001)
(= |__unbuffered_cnt#14| #b00000000000000000000000000000010)
(= |__CPROVER_threads_exited#1$wclk$8| #b00011010)
(= |__CPROVER_threads_exited#2$rclk$8| #b11110110)
(= |__CPROVER_threads_exited#5$wclk$8| #b11110101)
(= |__CPROVER_threads_exited#7$wclk$8| #b11111100)
(= |__CPROVER_threads_exited#9$wclk$8| #b11111110)
(= |__CPROVER_threads_exited#4$rclk$8| #b11110011)
(= |__CPROVER_threads_exited#3$wclk$8| #b11111111)
(= |__CPROVER_threads_exited#6$rclk$8| #b11111010)
(= |__CPROVER_threads_exited#8$rclk$8| #b11111101)
(= |x#15$wclk$8| #b11001111)
(= |x#2$rclk$8| #b11111100)
(= |x#18$wclk$8| #b11010000)
(= |x#22$wclk$8| #b11011000)
(= |x#25$wclk$8| #b11111000)
(= |x#28$wclk$8| #b11010110)
(= |x#6$rclk$8| #b11111101)
(= |x#1$wclk$8| #b00110010)
(= |x#16$rclk$8| #b11010000)
(= |x#5$wclk$8| #b11111100)
(= |x#14$wclk$8| #b11111101)
(= |x#19$rclk$8| #b11011000)
(= |x#23$rclk$8| #b11111000)
(= |x#26$rclk$8| #b11010110)
(= |__unbuffered_cnt#6$wclk$8| #b11110001)
(= |__unbuffered_cnt#2$rclk$8| #b11111010)
(= |__unbuffered_cnt#10$wclk$8| #b11110010)
(= |__unbuffered_cnt#13$wclk$8| #b11111001)
(= |__unbuffered_cnt#16$wclk$8| #b11110011)
(= |__unbuffered_cnt#1$wclk$8| #b00011011)
(= |__unbuffered_cnt#4$rclk$8| #b11110001)
(= |__unbuffered_cnt#7$rclk$8| #b11110010)
(= |__unbuffered_cnt#11$rclk$8| #b11111001)
(= |__unbuffered_cnt#14$rclk$8| #b11110011)
(= |__unbuffered_p1_EAX#6$wclk$8| #b11001000)
(= |__unbuffered_p1_EAX#2$rclk$8| #b11111101)
(= |__unbuffered_p1_EAX#1$wclk$8| #b00011100)
(= |__unbuffered_p1_EAX#5$rclk$8| #b11001000)
(= |__unbuffered_p3_EAX#4$wclk$8| #b11001100)
(= |__unbuffered_p3_EAX#2$rclk$8| #b11111101)
(= |__unbuffered_p3_EBX#4$wclk$8| #b11001101)
(= |__unbuffered_p3_EBX#2$rclk$8| #b11111101)
(= |a#1$wclk$8| #b00011111)
(= |a#3$rclk$8| #b11001101)
(= |a#2$wclk$8| #b11001110)
(= |main$tmp_guard1#5| #b00000000)
(= |x$r_buff0_thd0#1$wclk$8| #b00110110)
(= |x$r_buff0_thd0#38$rclk$8| #b11000111)
(= |x$r_buff0_thd0#10$wclk$8| #b11111100)
(= |x$r_buff0_thd0#37$wclk$8| #b11111101)
(= |x$r_buff0_thd1#1$wclk$8| #b00110111)
(= |x$r_buff0_thd1#2$rclk$8| #b11010000)
(= |x$r_buff0_thd1#5$rclk$8| #b11000111)
(= |x$r_buff0_thd1#4$wclk$8| #b11010000)
(= |x$r_buff0_thd2#1$wclk$8| #b01000000)
(= |x$r_buff0_thd2#2$rclk$8| #b11000111)
(= |x$r_buff0_thd2#6$rclk$8| #b11011000)
(= |x$r_buff0_thd3#1$wclk$8| #b01000001)
(= |x$r_buff0_thd3#2$rclk$8| #b11000111)
(= |x$r_buff0_thd3#6$wclk$8| #b11111000)
(= |x$r_buff0_thd3#4$rclk$8| #b11111000)
(= |x$r_buff0_thd4#1$wclk$8| #b01000010)
(= |x$r_buff0_thd4#2$rclk$8| #b11000111)
(= |x$r_buff0_thd4#6$wclk$8| #b11010110)
(= |x$r_buff0_thd4#4$rclk$8| #b11010110)
(= |x$r_buff1_thd0#23$wclk$8| #b11000111)
(= |x$r_buff1_thd0#2$rclk$8| #b11111100)
(= |x$r_buff1_thd0#9$rclk$8| #b11111101)
(= |x$r_buff1_thd0#1$wclk$8| #b01000011)
(= |x$r_buff1_thd0#22$rclk$8| #b11000111)
(= |x$r_buff1_thd0#8$wclk$8| #b11111100)
(= |x$r_buff1_thd0#20$wclk$8| #b11111101)
(= |x$r_buff1_thd1#1$wclk$8| #b01000110)
(= |x$r_buff1_thd1#2$rclk$8| #b11010000)
(= |x$r_buff1_thd1#7$wclk$8| #b11000111)
(= |x$r_buff1_thd1#6$rclk$8| #b11000111)
(= |x$r_buff1_thd1#4$wclk$8| #b11010000)
(= |x$r_buff1_thd2#1$wclk$8| #b01100000)
(= |x$r_buff1_thd2#3$rclk$8| #b11000111)
(= |x$r_buff1_thd2#5$rclk$8| #b11011000)
(= |x$r_buff1_thd3#1$wclk$8| #b01110000)
(= |x$r_buff1_thd3#3$rclk$8| #b11000111)
(= |x$r_buff1_thd3#7$wclk$8| #b11111000)
(= |x$r_buff1_thd3#5$rclk$8| #b11111000)
(= |x$r_buff1_thd3#4$wclk$8| #b11000111)
(= |x$r_buff1_thd4#1$wclk$8| #b01111000)
(= |x$r_buff1_thd4#3$rclk$8| #b11000111)
(= |x$r_buff1_thd4#7$wclk$8| #b11010110)
(= |x$r_buff1_thd4#5$rclk$8| #b11010110)
(= |x$r_buff1_thd4#4$wclk$8| #b11000111)
(= |x$w_buff0#16$wclk$8| #b11000111)
(= |x$w_buff0#2$rclk$8| #b11111100)
(= |x$w_buff0#4$rclk$8| #b11111101)
(= |x$w_buff0#1$wclk$8| #b01111101)
(= |x$w_buff0#12$rclk$8| #b11010000)
(= |x$w_buff0#11$wclk$8| #b11111101)
(= |x$w_buff0#14$rclk$8| #b11000111)
(= |x$w_buff0#17$rclk$8| #b11011000)
(= |x$w_buff0#19$rclk$8| #b11111000)
(= |x$w_buff0#21$rclk$8| #b11010110)
(= |x$w_buff0_used#33$wclk$8| #b11010000)
(= |x$w_buff0_used#2$rclk$8| #b11111100)
(= |x$w_buff0_used#36$wclk$8| #b11000111)
(= |x$w_buff0_used#45$wclk$8| #b11011000)
(= |x$w_buff0_used#48$wclk$8| #b11111000)
(= |x$w_buff0_used#51$wclk$8| #b11010110)
(= |x$w_buff0_used#11$rclk$8| #b11111101)
(= |x$w_buff0_used#1$wclk$8| #b01111110)
(= |x$w_buff0_used#31$rclk$8| #b11010000)
(= |x$w_buff0_used#10$wclk$8| #b11111100)
(= |x$w_buff0_used#30$wclk$8| #b11111101)
(= |x$w_buff0_used#34$rclk$8| #b11000111)
(= |x$w_buff0_used#37$rclk$8| #b11011000)
(= |x$w_buff0_used#46$rclk$8| #b11111000)
(= |x$w_buff0_used#49$rclk$8| #b11010110)
(= |x$w_buff1#14$wclk$8| #b11000111)
(= |x$w_buff1#2$rclk$8| #b11111100)
(= |x$w_buff1#4$rclk$8| #b11111101)
(= |x$w_buff1#1$wclk$8| #b01111111)
(= |x$w_buff1#12$rclk$8| #b11010000)
(= |x$w_buff1#11$wclk$8| #b11111101)
(= |x$w_buff1#15$rclk$8| #b11011000)
(= |x$w_buff1#17$rclk$8| #b11111000)
(= |x$w_buff1#19$rclk$8| #b11010110)
(= |x$w_buff1_used#23$wclk$8| #b11010000)
(= |x$w_buff1_used#2$rclk$8| #b11111100)
(= |x$w_buff1_used#24$wclk$8| #b11000111)
(= |x$w_buff1_used#31$wclk$8| #b11011000)
(= |x$w_buff1_used#34$wclk$8| #b11111000)
(= |x$w_buff1_used#37$wclk$8| #b11010110)
(= |x$w_buff1_used#9$rclk$8| #b11111101)
(= |x$w_buff1_used#1$wclk$8| #b10000000)
(= |x$w_buff1_used#21$rclk$8| #b11010000)
(= |x$w_buff1_used#8$wclk$8| #b11111100)
(= |x$w_buff1_used#20$wclk$8| #b11111101)
(= |x$w_buff1_used#25$rclk$8| #b11011000)
(= |x$w_buff1_used#32$rclk$8| #b11111000)
(= |x$w_buff1_used#35$rclk$8| #b11010110)
(= |y#1$wclk$8| #b10000001)
(= |y#2$rclk$8| #b11001000)
(= |y#4$wclk$8| #b11001001)
(= |z#4$wclk$8| #b11001010)
(= |z#2$rclk$8| #b11111101)
(= |z#5$wclk$8| #b11001011)
(= |z#1$wclk$8| #b10000010)
(= |z#6$rclk$8| #b11001100)
(= |__unbuffered_p3_EAX#1$wclk$8| #b00011101)
(= |__unbuffered_p3_EBX#1$wclk$8| #b00011110)
(= |x$r_buff0_thd2#5$wclk$8| #b11000111)
(= |x$r_buff0_thd2#14$wclk$8| #b11011000)
(= |x$r_buff1_thd2#4$wclk$8| #b11000111)
(= |x$r_buff1_thd2#11$wclk$8| #b11011000)
(= t1$45$spwnclk$8 #b10000110)
(= t1$50$spwnclk$8 #b10001010)
(= t1$55$spwnclk$8 #b10100110)
(= t1$60$spwnclk$8 #b10111000)
(= |main::1::t744!0@1$wclk$8| #b00000000)
(= |main::1::t745!0@1$wclk$8| #b00000100)
(= |main::1::t746!0@1$wclk$8| #b00001000)
(= |__CPROVER_dead_object#1$wclk$8| #b00001001)
(= |__CPROVER_deallocated#1$wclk$8| #b00001010)
(= |__CPROVER_malloc_is_new_array#1$wclk$8| #b00010000)
(= |__CPROVER_malloc_object#1$wclk$8| #b00010101)
(= |__CPROVER_malloc_size#1$wclk$8| #b00010110)
(= |__CPROVER_memory_leak#1$wclk$8| #b00010111)
(= |__CPROVER_next_thread_id#1$wclk$8| #b00011000)
(= |__CPROVER_pipe_count#1$wclk$8| #b00011001)
(= |main$tmp_guard0#1$wclk$8| #b00100000)
(= |main$tmp_guard1#1$wclk$8| #b00100001)
(= |weak$$choice0#1$wclk$8| #b00100010)
(= |weak$$choice2#1$wclk$8| #b00100011)
(= |x$flush_delayed#1$wclk$8| #b00110100)
(= |x$mem_tmp#1$wclk$8| #b00110101)
(= |x$read_delayed#1$wclk$8| #b01111010)
(= |x$read_delayed_var#1$wclk$8| #b01111100)
(= |main::1::t743!0@1#1$wclk$8| #b10000011)
(= |__CPROVER_next_thread_id#2$wclk$8| #b10000100)
(= |main::1::t743!0@1#2$wclk$8| #b10000101)
(= |main::1::t744!0@1#1$wclk$8| #b10000111)
(= |__CPROVER_next_thread_id#3$rclk$8| #b10001000)
(= |__CPROVER_next_thread_id#5$wclk$8| #b10001000)
(= |main::1::t744!0@1#2$wclk$8| #b10001001)
(= |main::1::t745!0@1#1$wclk$8| #b10001011)
(= |__CPROVER_next_thread_id#6$rclk$8| #b10001100)
(= |__CPROVER_next_thread_id#8$wclk$8| #b10001100)
(= |main::1::t745!0@1#2$wclk$8| #b10010101)
(= |main::1::t746!0@1#1$wclk$8| #b10100111)
(= |__CPROVER_next_thread_id#9$rclk$8| #b10101000)
(= |__CPROVER_next_thread_id#11$wclk$8| #b10101000)
(= |main::1::t746!0@1#2$wclk$8| #b10110001)
(= |main$tmp_guard0#2$wclk$8| #b11111010)
(= |main$tmp_guard0#3$rclk$8| #b11111011)
(= |x$r_buff0_thd0#2$rclk$8| #b11111100)
(= |main$tmp_guard1#3$rclk$8| #b11111101)
(= |weak$$choice0#3$rclk$8| #b11111101)
(= |weak$$choice2#3$rclk$8| #b11111101)
(= |x$flush_delayed#3$rclk$8| #b11111101)
(= |x$mem_tmp#3$rclk$8| #b11111101)
(= |x$r_buff0_thd0#11$rclk$8| #b11111101)
(= |x$mem_tmp#5$wclk$8| #b11111101)
(= |main$tmp_guard1#4$wclk$8| #b11111101)
(= |x$flush_delayed#7$wclk$8| #b11111101)
(= |weak$$choice2#11$wclk$8| #b11111101)
(= |weak$$choice0#4$wclk$8| #b11111101)
(= |main$tmp_guard1#5$rclk$8| #b11111110)
(= |main$tmp_guard1#6$rclk$8| #b11111111)
(= array_of.0 @fun_9)
(= |__CPROVER_threads_exited#2| @fun_7)
(= |__CPROVER_threads_exited#4| @fun_9)
(= |__CPROVER_threads_exited#6| @fun_7)
(= |__CPROVER_threads_exited#8| @fun_7)
(function @fun_9
 (type (Array (_ BitVec 32) (_ BitVec 1)))
 (= (@fun_9 #b10000000000000000000000000000000) #b0)
 (= (@fun_9 #b00000000000000000000000000000000) #b0)
 (default #b1))
(function @fun_7
 (type (Array (_ BitVec 32) (_ BitVec 1)))
 (= (@fun_7 #b10000000000000000000000000000000) #b0)
 (default #b1))

real	0m0.026s
user	0m0.016s
sys	0m0.009s
State: AC Run_time: 0.027552127838134766